StringID   Type       x          y          demand     ReadyTime  DueDate    ServiceTime
D0         d              47.707    35.953      0.000      0.000     23.983      0.000
S0         f              47.707    35.953      0.000      0.000     23.983      0.000
S1         f              71.840    11.930      0.000      0.000     23.983      0.000
S2         f              89.550    34.810      0.000      0.000     23.983      0.000
C0         c              19.641    38.312      0.006     10.419     11.101      0.017
C1         c              49.687    16.723      0.034     10.348     10.997      0.067
C2         c              27.895    69.518      0.005     19.547     20.044      0.017
C3         c              10.240    33.749      0.004     17.194     17.841      0.033
C4         c               4.339    60.116      0.001     11.677     12.214      0.033

Q Vehicle fuel tank capacity /124.9300/
C Vehicle load capacity /1.1700/
r fuel consumption rate /0.4462/
g inverse refueling rate /0.0070/
v average Velocity /43.9800/
gv charging speed /143.1400/

--------------------
instance_id /117/
number of clusters /5/
working_startTime (hour) /8.00/
working_endTime (hour) /21.35/
instance_endTime (hour) /23.98/
service_time_type /random/
demand_type /20_80/
instance_type /RC/
instance x range /[0.0, 100.0]/
instance y range /[0.0, 100.0]/
cs_time_to_depot (hour)/[0.7742501816940217,0.9517646295984658]/
